
Gurobi 7.5.2 (linux64) logging started Sat Jun 23 16:55:25 2018

Changed value of parameter LogFile to result/ilp/simNo_1-n_100-m_40-s_4-minVAF_0.05-cov_2000-k_1-fn_0.05-fp_0.0001-na_0.15.ILP.gurobiSolverLog
   Prev: gurobi.log  Default: 
Changed value of parameter TimeLimit to 86400.0
   Prev: 1e+100  Min: 0.0  Max: 1e+100  Default: 1e+100
Optimize a model with 1265601 rows, 330440 columns and 3489120 nonzeros
Variable types: 0 continuous, 330440 integer (330440 binary)
Coefficient statistics:
  Matrix range     [2e-03, 3e+00]
  Objective range  [7e-03, 9e+00]
  Bounds range     [1e+00, 1e+00]
  RHS range        [2e-01, 2e+00]
Found heuristic solution: objective -19162.27413
Presolve removed 307982 rows and 212438 columns (presolve time = 5s) ...
Presolve removed 326276 rows and 212438 columns (presolve time = 10s) ...
Presolve removed 327256 rows and 212438 columns (presolve time = 15s) ...
Presolve removed 327842 rows and 212438 columns (presolve time = 20s) ...
Presolve removed 327842 rows and 212438 columns (presolve time = 25s) ...
Presolve removed 327842 rows and 212438 columns (presolve time = 31s) ...
Presolve removed 327842 rows and 212438 columns (presolve time = 36s) ...
Presolve removed 327842 rows and 212438 columns (presolve time = 40s) ...
Presolve removed 327842 rows and 212438 columns (presolve time = 45s) ...
Presolve removed 327842 rows and 212438 columns (presolve time = 52s) ...
Presolve removed 327842 rows and 212438 columns
Presolve time: 54.81s
Presolved: 937759 rows, 118002 columns, 2599749 nonzeros
Variable types: 0 continuous, 118002 integer (118002 binary)
Presolved: 118002 rows, 1055761 columns, 2717751 nonzeros

Presolve removed 118002 rows and 1055761 columns

Root simplex log...

Iteration    Objective       Primal Inf.    Dual Inf.      Time
       0    3.9502317e+00   0.000000e+00   1.172460e+05     65s
   13662   -1.7371451e+02   0.000000e+00   2.223717e+04     70s
   16212   -1.8330321e+02   0.000000e+00   0.000000e+00     73s
   16212   -1.8330321e+02   0.000000e+00   0.000000e+00     75s

Root relaxation: objective -1.833032e+02, 16212 iterations, 17.15 seconds
Total elapsed time = 116.66s
Total elapsed time = 132.50s
Total elapsed time = 152.49s

    Nodes    |    Current Node    |     Objective Bounds      |     Work
 Expl Unexpl |  Obj  Depth IntInf | Incumbent    BestBd   Gap | It/Node Time

     0     0 -183.30321    0  745 -19162.274 -183.30321  99.0%     -  163s
H    0     0                    -214.3736630 -183.30321  14.5%     -  173s
     0     0 -189.19209    0  776 -214.37366 -189.19209  11.7%     -  199s
     0     0 -190.66431    0  595 -214.37366 -190.66431  11.1%     -  234s
     0     0 -190.66431    0  651 -214.37366 -190.66431  11.1%     -  249s
     0     0 -192.13653    0  755 -214.37366 -192.13653  10.4%     -  269s
     0     0 -192.13653    0  754 -214.37366 -192.13653  10.4%     -  284s
     0     0 -193.60875    0  534 -214.37366 -193.60875  9.69%     -  301s
     0     0 -193.60875    0  531 -214.37366 -193.60875  9.69%     -  316s
     0     0 -195.08097    0  748 -214.37366 -195.08097  9.00%     -  332s
     0     0 -195.08097    0  677 -214.37366 -195.08097  9.00%     -  347s
     0     0 -197.28930    0  520 -214.37366 -197.28930  7.97%     -  364s
     0     0 -197.28930    0  521 -214.37366 -197.28930  7.97%     -  377s
     0     0 -198.02541    0  514 -214.37366 -198.02541  7.63%     -  395s
     0     0 -198.02541    0  515 -214.37366 -198.02541  7.63%     -  409s
     0     0 -199.49763    0  519 -214.37366 -199.49763  6.94%     -  429s
     0     0 -199.49763    0  519 -214.37366 -199.49763  6.94%     -  445s
     0     0 -200.96985    0  574 -214.37366 -200.96985  6.25%     -  464s
     0     0 -200.96985    0  514 -214.37366 -200.96985  6.25%     -  479s
     0     0 -201.75703    0  681 -214.37366 -201.75703  5.89%     -  500s
     0     0 -202.01942    0  691 -214.37366 -202.01942  5.76%     -  515s
     0     0 -202.01942    0  692 -214.37366 -202.01942  5.76%     -  524s
     0     0 -202.01942    0  699 -214.37366 -202.01942  5.76%     -  541s
     0     0 -202.75694    0  714 -214.37366 -202.75694  5.42%     -  558s
     0     0 -202.81012    0  665 -214.37366 -202.81012  5.39%     -  570s
     0     0 -202.81012    0  594 -214.37366 -202.81012  5.39%     -  579s
     0     0 -203.28044    0  692 -214.37366 -203.28044  5.17%     -  597s
     0     0 -204.25749    0  657 -214.37366 -204.25749  4.72%     -  617s
     0     0 -204.25749    0  658 -214.37366 -204.25749  4.72%     -  627s
     0     0 -204.99791    0  641 -214.37366 -204.99791  4.37%     -  645s
     0     0 -205.56808    0  770 -214.37366 -205.56808  4.11%     -  667s
     0     0 -205.78516    0  688 -214.37366 -205.78516  4.01%     -  678s
     0     0 -205.78516    0  667 -214.37366 -205.78516  4.01%     -  687s
     0     0 -206.12262    0  566 -214.37366 -206.12262  3.85%     -  703s
     0     0 -206.23498    0  729 -214.37366 -206.23498  3.80%     -  721s
     0     0 -206.23907    0  680 -214.37366 -206.23907  3.79%     -  730s
     0     0 -207.10410    0  670 -214.37366 -207.10410  3.39%     -  750s
     0     0 -207.29819    0  655 -214.37366 -207.29819  3.30%     -  769s
     0     0 -207.29819    0  660 -214.37366 -207.29819  3.30%     -  779s
     0     0 -207.40075    0  571 -214.37366 -207.40075  3.25%     -  797s
     0     0 -207.44761    0  667 -214.37366 -207.44761  3.23%     -  812s
     0     0 -207.46884    0  604 -214.37366 -207.46884  3.22%     -  822s
     0     0 -207.46884    0  605 -214.37366 -207.46884  3.22%     -  831s
     0     0 -207.91346    0  719 -214.37366 -207.91346  3.01%     -  850s
     0     0 -208.25403    0  679 -214.37366 -208.25403  2.85%     -  872s
     0     0 -208.25403    0  681 -214.37366 -208.25403  2.85%     -  882s
     0     0 -208.27967    0  662 -214.37366 -208.27967  2.84%     -  897s
     0     0 -208.27967    0  671 -214.37366 -208.27967  2.84%     -  911s
     0     0 -208.27967    0  675 -214.37366 -208.27967  2.84%     -  925s
     0     0 -208.27967    0  555 -214.37366 -208.27967  2.84%     -  991s
     0     0 -208.27967    0  613 -214.37366 -208.27967  2.84%     - 1005s
     0     0 -208.27967    0  614 -214.37366 -208.27967  2.84%     - 1068s
     0     0 -208.27967    0  614 -214.37366 -208.27967  2.84%     - 1105s
     0     2 -208.28202    0  614 -214.37366 -208.28202  2.84%     - 1218s
     1     3 -208.34776    1  604 -214.37366 -208.28354  2.84%  1135 1222s
     3     5 -208.34811    3  604 -214.37366 -208.28354  2.84%   414 1231s
     4     6 -209.34647    4  617 -214.37366 -208.28354  2.84%   406 1241s
     5     7 -210.34497    5  591 -214.37366 -208.28354  2.84%   442 1247s
     6     8 -210.34524    6  620 -214.37366 -208.28354  2.84%   383 1254s
     7     9 -210.45132    7 1056 -214.37366 -208.28354  2.84%   368 1283s
     8    10 -211.12155    8  459 -214.37366 -208.28354  2.84%   333 1286s
    10    10     cutoff    9      -214.37366 -208.28354  2.84%   273 1291s
    13    12 -214.06598   12  362 -214.37366 -208.28354  2.84%   213 1295s
    16    11 -208.48479    1  578 -214.37366 -208.34825  2.81%   197 1302s
    17    12 -212.16533    2  565 -214.37366 -208.34825  2.81%   241 1310s
    19    10     cutoff    3      -214.37366 -208.34825  2.81%   237 1317s
    21     8     cutoff    3      -214.37366 -208.35594  2.81%   259 1325s
    22     7     cutoff    2      -214.37366 -208.38233  2.79%   287 1331s
    23     6     cutoff    4      -214.37366 -209.94322  2.07%   325 1338s
    24     5     cutoff    5      -214.37366 -210.40260  1.85%   329 1340s
    29     0     cutoff   11      -214.37366 -214.37366  0.00%   296 1345s

Cutting planes:
  Gomory: 2
  Zero half: 126

Explored 30 nodes (55312 simplex iterations) in 1346.19 seconds
Thread count was 1 (of 80 available processors)

Solution count 2: -214.374 -19162.3 

Optimal solution found (tolerance 1.00e-04)
Best objective -2.143736629916e+02, best bound -2.143736629916e+02, gap 0.0000%
